JulietBench/Juliet_Based_Patch_Bench/qemu/CWE-369-Divide-By-Zero/CVE_2016_8669_3592fe0c919cf27a81d8e9f9b4f269553418bb01/Resultserial_update_parameters_SnippetNEQ.smt2
; benchmark generated from python API
(set-info :status unknown)
(declare-fun R () (_ BitVec 32))
(declare-fun rdi () (_ BitVec 64))
(declare-fun rsi () (_ BitVec 64))
(assert
 (let (($x73 (and (distinct (_ bv2 32) R) true)))
 (let (($x69 (= (_ bv0 32) R)))
 (let ((?x12 ((_ extract 15 0) rdi)))
 (let (($x17 (= (_ bv0 16) ?x12)))
 (let (($x59 (and $x17 $x69)))
 (let ((?x15 (concat (_ bv0 48) ?x12)))
 (let ((?x11 ((_ extract 31 0) rsi)))
 (let ((?x54 (bvashr ?x11 (_ bv31 32))))
 (let ((?x55 (concat ?x54 ?x11)))
 (let ((?x62 (bvsdiv ?x55 ?x15)))
 (let ((?x64 ((_ extract 31 0) ?x62)))
 (let (($x63 (= R ?x64)))
 (let (($x43 (and (distinct (_ bv0 16) ?x12) true)))
 (let (($x58 (and $x43 $x63)))
 (let (($x60 (or $x58 $x59)))
 (let (($x72 (not $x60)))
 (let (($x74 (and $x72 $x73)))
 (let (($x13 (= (_ bv2 32) R)))
 (let (($x7 (and $x60 $x13)))
 (let (($x75 (or $x7 $x74)))
 (not $x75))))))))))))))))))))))
(check-sat)
